(set-logic QF_S)
(declare-fun var_0xINPUT_278591 () String)
(assert (and (= (len var_0xINPUT_278591) 0) (= (len var_0xINPUT_278591) 0) (not (= var_0xINPUT_278591 "4PH2ujcENG"))))
(check-sat var_0xINPUT_278591)